\ LP format - for model browsing. Use MPS format to capture full model detail.
Minimize
  2.572581990032146 x[0] + 2.572581990032146 x[1] + 2.572581990032146 x[2]
Subject To
 Crew: x[0] + x[1] + x[2] <= 5
 restriccion_nodo1: x[0] + x[1] + x[2] = 1
 restriccion_nodo2: = 1
 restriccion_nodo3: = 1
Bounds
Binaries
 x[0] x[1] x[2]
End
